c K to QBF translator. (C)Rice University.
c From input file 6-1.lwb
p cnf 139 354
e 139 1 138 0
a 34 0
e 43 137 12 11 10 9 8 7 6 5 4 3 2 48 49 136 0
a 35 36 37 0
e 54 135 21 20 19 18 17 16 15 14 13 57 63 66 69 72 75 78 80 82 83 134 0
a 38 39 0
e 86 133 27 26 25 24 23 22 89 93 96 99 102 105 107 108 132 0
a 40 41 0
e 111 131 31 30 29 28 114 117 120 122 123 130 0
a 42 0
e 124 129 33 32 126 127 128 125 121 118 119 116 115 113 112 109 110 106 103 104 101 100 98 97 95 94 91 92 90 88 87 84 85 81 79 76 77 73 74 71 70 68 67 65 64 59 62 60 61 58 56 55 50 51 52 53 47 44 45 46 0
139  0 
139 -138 -1  0 
138 -139  0 
1 -139  0 
-138 43 137  0 
-43 138  0 
-137 138  0 
-43 -34 -1  0 
34 43  0 
1 43  0 
137 -48 -49 -136  0 
48 -137  0 
49 -137  0 
136 -137  0 
-48 -34 47  0 
34 48  0 
-47 48  0 
47 -9 -44 -45 -46 -2 -3  0 
9 -47  0 
44 -47  0 
45 -47  0 
46 -47  0 
2 -47  0 
3 -47  0 
-44 5 7 11 10  0 
-5 44  0 
-7 44  0 
-11 44  0 
-10 44  0 
-45 4 6 12  0 
-4 45  0 
-6 45  0 
-12 45  0 
-46 4 8  0 
-4 46  0 
-8 46  0 
-49 -11 -12  0 
11 49  0 
12 49  0 
-136 54 135  0 
-54 136  0 
-135 136  0 
54 -50 -51 -52 -53  0 
50 -54  0 
51 -54  0 
52 -54  0 
53 -54  0 
-50 -5 35 36 -37  0 
5 50  0 
-35 50  0 
-36 50  0 
37 50  0 
-51 -4 -35 36 -37  0 
4 51  0 
35 51  0 
-36 51  0 
37 51  0 
-52 -3 35 -36 -37  0 
3 52  0 
-35 52  0 
36 52  0 
37 52  0 
-53 -2 -35 -36 -37  0 
2 53  0 
35 53  0 
36 53  0 
37 53  0 
135 -57 -63 -66 -69 -72 -75 -78 -80 -82 -83 -134  0 
57 -135  0 
63 -135  0 
66 -135  0 
69 -135  0 
72 -135  0 
75 -135  0 
78 -135  0 
80 -135  0 
82 -135  0 
83 -135  0 
134 -135  0 
-57 56 21  0 
-56 57  0 
-21 57  0 
-56 -10 55  0 
10 56  0 
-55 56  0 
55 5 4 3 2  0 
-5 -55  0 
-4 -55  0 
-3 -55  0 
-2 -55  0 
-63 59 62  0 
-59 63  0 
-62 63  0 
-59 -9 58  0 
9 59  0 
-58 59  0 
58 5 4 3 2  0 
-5 -58  0 
-4 -58  0 
-3 -58  0 
-2 -58  0 
62 -60 -61  0 
60 -62  0 
61 -62  0 
-60 13 15  0 
-13 60  0 
-15 60  0 
-61 14 21  0 
-14 61  0 
-21 61  0 
-66 65 16  0 
-65 66  0 
-16 66  0 
-65 -8 64  0 
8 65  0 
-64 65  0 
64 5 4 3 2  0 
-5 -64  0 
-4 -64  0 
-3 -64  0 
-2 -64  0 
-69 68 14  0 
-68 69  0 
-14 69  0 
-68 -7 67  0 
7 68  0 
-67 68  0 
67 5 4 3 2  0 
-5 -67  0 
-4 -67  0 
-3 -67  0 
-2 -67  0 
-72 71 13  0 
-71 72  0 
-13 72  0 
-71 -6 70  0 
6 71  0 
-70 71  0 
70 5 4 3 2  0 
-5 -70  0 
-4 -70  0 
-3 -70  0 
-2 -70  0 
-75 73 74  0 
-73 75  0 
-74 75  0 
-73 35 36 -37  0 
-35 73  0 
-36 73  0 
37 73  0 
74 -18 -21 -13  0 
18 -74  0 
21 -74  0 
13 -74  0 
-78 76 77  0 
-76 78  0 
-77 78  0 
-76 -35 36 -37  0 
35 76  0 
-36 76  0 
37 76  0 
77 -17 -20  0 
17 -77  0 
20 -77  0 
-80 79 20  0 
-79 80  0 
-20 80  0 
-79 35 -36 -37  0 
-35 79  0 
36 79  0 
37 79  0 
-82 81 19  0 
-81 82  0 
-19 82  0 
-81 -35 -36 -37  0 
35 81  0 
36 81  0 
37 81  0 
-83 -20 -21  0 
20 83  0 
21 83  0 
-134 86 133  0 
-86 134  0 
-133 134  0 
86 -84 -85  0 
84 -86  0 
85 -86  0 
-84 -14 38 -39  0 
14 84  0 
-38 84  0 
39 84  0 
-85 -13 -38 -39  0 
13 85  0 
38 85  0 
39 85  0 
133 -89 -93 -96 -99 -102 -105 -107 -108 -132  0 
89 -133  0 
93 -133  0 
96 -133  0 
99 -133  0 
102 -133  0 
105 -133  0 
107 -133  0 
108 -133  0 
132 -133  0 
-89 88 27  0 
-88 89  0 
-27 89  0 
-88 -19 87  0 
19 88  0 
-87 88  0 
87 14 13  0 
-14 -87  0 
-13 -87  0 
-93 91 92 24  0 
-91 93  0 
-92 93  0 
-24 93  0 
-91 -18 90  0 
18 91  0 
-90 91  0 
90 14 13  0 
-14 -90  0 
-13 -90  0 
92 -27 -22  0 
27 -92  0 
22 -92  0 
-96 95 26 25  0 
-95 96  0 
-26 96  0 
-25 96  0 
-95 -17 94  0 
17 95  0 
-94 95  0 
94 14 13  0 
-14 -94  0 
-13 -94  0 
-99 98 23 27  0 
-98 99  0 
-23 99  0 
-27 99  0 
-98 -16 97  0 
16 98  0 
-97 98  0 
97 14 13  0 
-14 -97  0 
-13 -97  0 
-102 101 25  0 
-101 102  0 
-25 102  0 
-101 -15 100  0 
15 101  0 
-100 101  0 
100 14 13  0 
-14 -100  0 
-13 -100  0 
-105 103 104  0 
-103 105  0 
-104 105  0 
-103 38 -39  0 
-38 103  0 
39 103  0 
104 -27 -22  0 
27 -104  0 
22 -104  0 
-107 106 26  0 
-106 107  0 
-26 107  0 
-106 -38 -39  0 
38 106  0 
39 106  0 
-108 -26 -27  0 
26 108  0 
27 108  0 
-132 111 131  0 
-111 132  0 
-131 132  0 
111 -109 -110  0 
109 -111  0 
110 -111  0 
-109 -23 40 -41  0 
23 109  0 
-40 109  0 
41 109  0 
-110 -22 -40 -41  0 
22 110  0 
40 110  0 
41 110  0 
131 -114 -117 -120 -122 -123 -130  0 
114 -131  0 
117 -131  0 
120 -131  0 
122 -131  0 
123 -131  0 
130 -131  0 
-114 113 31  0 
-113 114  0 
-31 114  0 
-113 -25 112  0 
25 113  0 
-112 113  0 
112 23 22  0 
-23 -112  0 
-22 -112  0 
-117 116 30 29  0 
-116 117  0 
-30 117  0 
-29 117  0 
-116 -24 115  0 
24 116  0 
-115 116  0 
115 23 22  0 
-23 -115  0 
-22 -115  0 
-120 118 119  0 
-118 120  0 
-119 120  0 
-118 40 -41  0 
-40 118  0 
41 118  0 
119 -31 -28  0 
31 -119  0 
28 -119  0 
-122 121 30  0 
-121 122  0 
-30 122  0 
-121 -40 -41  0 
40 121  0 
41 121  0 
-123 -30 -31  0 
30 123  0 
31 123  0 
-130 124 129  0 
-124 130  0 
-129 130  0 
-124 -42 -28  0 
42 124  0 
28 124  0 
129 -126 -127 -128  0 
126 -129  0 
127 -129  0 
128 -129  0 
-126 125 33  0 
-125 126  0 
-33 126  0 
-125 -29 -28  0 
29 125  0 
28 125  0 
-127 -42 32  0 
42 127  0 
-32 127  0 
-128 -32 -33  0 
32 128  0 
33 128  0 
